proyfinal/src/viki/013/andrea/andrea-localstore/experimentInOfficeAgust.take6/worker_9/575fe8e9-4aa4-40b3-a879-8258dada6218.als.cnf.out
Reading from standard input... Use '--help' for help.
============================[ Problem Statistics ]=============================
|                                                                             |
|  Number of variables:         87638                                         |
|  Number of clauses:          161767                                         |
|  Parse time:                   0.03 s                                       |
|                                                                             |
============================[ Search Statistics ]==============================
| Conflicts |          ORIGINAL         |          LEARNT          | Progress |
|           |    Vars  Clauses Literals |    Limit  Clauses Lit/Cl |          |
===============================================================================
|       100 |   61873   103501   258111 |    37950      100      8 | 29.399 % |
|       250 |   61873   103501   258111 |    41745      250     31 | 29.399 % |
|       475 |   61873   103501   258111 |    45919      475     53 | 29.399 % |
|       812 |   61873   103501   258111 |    50511      812     47 | 29.399 % |
|      1318 |   61873   103501   258111 |    55563     1318     64 | 29.399 % |
|      2077 |   61873   103501   258111 |    61119     2077     76 | 29.399 % |
|      3216 |   61873   103501   258111 |    67231     3216    103 | 29.399 % |
|      4924 |   61872   103457   258021 |    73954     4921    101 | 29.400 % |
|      7486 |   61872   103457   258021 |    81349     7483    104 | 29.400 % |
|     11330 |   61872   103457   258021 |    89484    11327    118 | 29.400 % |
===============================================================================
restarts              : 63
conflicts             : 16701          (7164 /sec)
decisions             : 51146          (0.00 % random) (21940 /sec)
propagations          : 21970414       (9424609 /sec)
conflict literals     : 1595265        (46.66 % deleted)
Memory used           : 38.15 MB
CPU time              : 2.33117 s

UNSATISFIABLE
